NAME : OMNETRUN
COMMENT : 524.61
TYPE : CVRP
DIMENSION : 21
EDGE_WEIGHT_TYPE : EUC_2D
CAPACITY : 21
NODE_COORD_SECTION
1 0.107093 -0.77924
2 176.408 -2206.14
3 187.144 -3699.92
4 6.84966 -4170.41
5 108.842 -5319.05
6 484.598 -1193.54
7 354.598 -2728.98
8 297.72 -3106.91
9 475.506 -3899.26
10 385.601 -4259.36
11 294.113 -4650.13
12 295.554 -5620.17
13 677.623 -1879.11
14 698.319 -3024.07
15 527.148 -5135.54
16 644.622 -5769.32
17 797.366 -245.316
18 854.037 -707.63
19 844.952 -1469.23
20 794.832 -2360.82
21 861.953 -3595.58
DEMAND_SECTION
1 0
2 1
3 1
4 1
5 1
6 1
7 1
8 1
9 1
10 1
11 1
12 1
13 1
14 1
15 1
16 1
17 1
18 1
19 1
20 1
21 1
DEPOT_SECTION
1
-1
EOF
